# Solution for model count
# Objective value = 9
z#1 1
z#2 0
z#3 1
z#4 1
z#5 0
z#6 1
z#7 0
z#8 0
z#9 0
z#10 0
z#11 1
z#12 0
z#13 1
z#14 0
z#15 1
z#16 0
z#17 1
z#18 0
z#19 1
z#20 0
z#21 0
z#22 0
z#23 0
z#24 0
x#24 0
x#23 0
x#22 0
x#21 0
x#20 0
x#19 624
x#18 0
x#17 2873
x#16 0
x#15 127
x#14 0
x#13 405
x#12 0
x#11 2206
x#10 0
x#9 0
x#8 0
x#7 0
x#6 836
x#5 0
x#4 1622
x#3 819
x#2 0
x#1 488
